param set_len = 26;
param target_sum = 6521389465;
param values := [1] 790075250 [2] 392732919 [3] 203446244 [4] 174824618 [5] 189177699 [6] 1034121658 [7] 497126091 [8] 585214034 [9] 56996344 [10] 114201522 [11] 954895876 [12] 1030497251 [13] 1063098440 [14] 214831950 [15] 718387574 [16] 763411342 [17] 203221404 [18] 258639847 [19] 447868550 [20] 487637543 [21] 1025251246 [22] 592015927 [23] 607121611 [24] 26301174 [25] 332076284 [26] 478762511 ;
